N = 14;
H = 5;
T = 2;

avail = array3d(1..N, 1..H, 1..T, [2, 4, 2, 6, 9, 2, 2, 4, 6, 5, 7, 8, 8, 0, 0, 10, 7, 2, 8, 6, 9, 0, 2, 1, 10, 2, 3, 9, 4, 10, 2, 3, 4, 5, 1, 8, 10, 3, 10, 3, 0, 6, 7, 5, 1, 1, 9, 1, 3, 6, 9, 0, 7, 9, 9, 3, 7, 4, 3, 1, 8, 10, 8, 4, 7, 5, 6, 8, 2, 3, 10, 7, 4, 1, 6, 9, 10, 1, 6, 7, 8, 7, 8, 0, 0, 4, 4, 10, 5, 2, 9, 0, 5, 9, 2, 7, 6, 10, 10, 8, 8, 9, 8, 9, 0, 0, 0, 7, 4, 1, 10, 8, 2, 6, 1, 4, 7, 7, 7, 8, 0, 2, 5, 0, 10, 9, 3, 3, 2, 9, 1, 9, 3, 3, 1, 9, 8, 2, 4, 7]);

r = array2d(1..H, 1..T, [1, 3, 1, 5, 2, 5, 1, 6, 3, 4]);
